sat
(model 
  (define-fun |nWeight(2)| () Int
    73)
  (define-fun |required(ezcsp__gt(nWeight(6),ezcsp__mn(ezcsp__pl(88,54),54)))| () Bool
    false)
  (define-fun |required(ezcsp__gt(nWeight(1),ezcsp__mn(ezcsp__pl(59,61),59)))| () Bool
    false)
  (define-fun |leafPos(8,6)| () Bool
    false)
  (define-fun |nWeight(6)| () Int
    142)
  (define-fun |required(ezcsp__leq(nWeight(2),ezcsp__mn(ezcsp__pl(59,61),59)))| () Bool
    false)
  (define-fun |posColor(4,blue)| () Bool
    false)
  (define-fun |required(ezcsp__gt(nWeight(3),ezcsp__mn(ezcsp__pl(45,53),45)))| () Bool
    true)
  (define-fun |required(ezcsp__eq(nWeight(5),ezcsp__pl(nWeight(4),50)))| () Bool
    false)
  (define-fun |required(ezcsp__gt(nWeight(5),ezcsp__mn(ezcsp__pl(45,53),45)))| () Bool
    false)
  (define-fun |leafPos(5,5)| () Bool
    true)
  (define-fun |478| () Bool
    false)
  (define-fun |nWeight(5)| () Int
    104)
  (define-fun |leafPos(8,1)| () Bool
    false)
  (define-fun |required(ezcsp__eq(nWeight(5),120))| () Bool
    false)
  (define-fun |required(ezcsp__gt(nWeight(6),ezcsp__mn(ezcsp__pl(59,61),59)))| () Bool
    true)
  (define-fun |leafPos(3,7)| () Bool
    false)
  (define-fun |458| () Bool
    false)
  (define-fun |required(ezcsp__eq(nWeight(3),ezcsp__pl(nWeight(2),59)))| () Bool
    false)
  (define-fun |required(ezcsp__eq(nWeight(2),101))| () Bool
    false)
  (define-fun |required(ezcsp__eq(nWeight(1),131))| () Bool
    false)
  (define-fun |462| () Bool
    false)
  (define-fun |leafPos(7,3)| () Bool
    false)
  (define-fun |required(ezcsp__gt(nWeight(2),ezcsp__mn(ezcsp__pl(88,54),54)))| () Bool
    false)
  (define-fun |leafPos(1,6)| () Bool
    false)
  (define-fun |required(ezcsp__eq(nWeight(6),104))| () Bool
    false)
  (define-fun |required(ezcsp__eq(nWeight(3),ezcsp__pl(nWeight(2),20)))| () Bool
    false)
  (define-fun |posColor(6,blue)| () Bool
    false)
  (define-fun |required(ezcsp__eq(nWeight(6),ezcsp__pl(nWeight(5),17)))| () Bool
    false)
  (define-fun |470| () Bool
    false)
  (define-fun |leafPos(4,2)| () Bool
    false)
  (define-fun |posColor(3,blue)| () Bool
    false)
  (define-fun |posColor(1,green)| () Bool
    false)
  (define-fun |required(ezcsp__gt(nWeight(4),ezcsp__mn(ezcsp__pl(45,53),45)))| () Bool
    false)
  (define-fun |427| () Bool
    false)
  (define-fun |leafPos(7,7)| () Bool
    false)
  (define-fun |required(ezcsp__eq(nWeight(5),ezcsp__pl(nWeight(4),17)))| () Bool
    false)
  (define-fun |leafPos(5,7)| () Bool
    false)
  (define-fun |required(ezcsp__leq(nWeight(5),ezcsp__mn(ezcsp__pl(88,54),54)))| () Bool
    false)
  (define-fun |required(ezcsp__gt(nWeight(6),ezcsp__mn(ezcsp__pl(81,20),20)))| () Bool
    false)
  (define-fun |leafPos(3,1)| () Bool
    false)
  (define-fun |required(ezcsp__gt(nWeight(3),ezcsp__mn(ezcsp__pl(36,91),36)))| () Bool
    false)
  (define-fun |required(ezcsp__eq(nWeight(2),104))| () Bool
    false)
  (define-fun |required(ezcsp__leq(nWeight(6),ezcsp__mn(ezcsp__pl(82,89),82)))| () Bool
    false)
  (define-fun |leafPos(2,6)| () Bool
    false)
  (define-fun |required(ezcsp__leq(nWeight(4),ezcsp__mn(ezcsp__pl(45,53),45)))| () Bool
    false)
  (define-fun |required(ezcsp__eq(nWeight(1),117))| () Bool
    false)
  (define-fun |leafPos(1,5)| () Bool
    false)
  (define-fun |leafPos(2,3)| () Bool
    true)
  (define-fun |required(ezcsp__eq(nWeight(1),113))| () Bool
    false)
  (define-fun |446| () Bool
    false)
  (define-fun |required(ezcsp__eq(nWeight(7),104))| () Bool
    false)
  (define-fun |posColor(5,red)| () Bool
    false)
  (define-fun |required(ezcsp__eq(nWeight(7),171))| () Bool
    false)
  (define-fun |required(ezcsp__eq(nWeight(6),ezcsp__pl(nWeight(5),20)))| () Bool
    false)
  (define-fun |required(ezcsp__eq(nWeight(4),ezcsp__pl(nWeight(3),36)))| () Bool
    false)
  (define-fun |required(ezcsp__eq(nWeight(3),171))| () Bool
    false)
  (define-fun |nWeight(3)| () Int
    155)
  (define-fun |464| () Bool
    false)
  (define-fun |leafPos(7,5)| () Bool
    false)
  (define-fun |461| () Bool
    false)
  (define-fun |required(ezcsp__gt(nWeight(6),ezcsp__mn(ezcsp__pl(50,54),50)))| () Bool
    false)
  (define-fun |leafPos(4,0)| () Bool
    false)
  (define-fun |required(ezcsp__eq(nWeight(7),ezcsp__pl(nWeight(6),45)))| () Bool
    false)
  (define-fun |required(ezcsp__eq(nWeight(4),104))| () Bool
    false)
  (define-fun |leafPos(6,6)| () Bool
    true)
  (define-fun |required(ezcsp__eq(nWeight(2),ezcsp__pl(nWeight(1),54)))| () Bool
    false)
  (define-fun |required(ezcsp__gt(nWeight(5),ezcsp__mn(ezcsp__pl(36,91),36)))| () Bool
    false)
  (define-fun |required(ezcsp__leq(nWeight(5),ezcsp__mn(ezcsp__pl(81,20),20)))| () Bool
    false)
  (define-fun |required(ezcsp__eq(nWeight(1),170))| () Bool
    false)
  (define-fun |required(ezcsp__leq(nWeight(3),ezcsp__mn(ezcsp__pl(36,91),36)))| () Bool
    false)
  (define-fun |required(ezcsp__eq(nWeight(1),136))| () Bool
    false)
  (define-fun |posColor(3,red)| () Bool
    true)
  (define-fun |431| () Bool
    false)
  (define-fun |required(ezcsp__leq(nWeight(1),ezcsp__mn(ezcsp__pl(50,54),50)))| () Bool
    false)
  (define-fun |432| () Bool
    false)
  (define-fun |required(ezcsp__gt(nWeight(2),ezcsp__mn(ezcsp__pl(17,89),17)))| () Bool
    false)
  (define-fun |required(ezcsp__eq(nWeight(6),142))| () Bool
    true)
  (define-fun |required(ezcsp__eq(nWeight(2),142))| () Bool
    false)
  (define-fun |posColor(5,blue)| () Bool
    false)
  (define-fun |leafPos(4,3)| () Bool
    false)
  (define-fun |required(ezcsp__gt(nWeight(3),ezcsp__mn(ezcsp__pl(88,54),54)))| () Bool
    false)
  (define-fun |434| () Bool
    false)
  (define-fun |required(ezcsp__eq(nWeight(1),127))| () Bool
    false)
  (define-fun |required(ezcsp__eq(nWeight(1),133))| () Bool
    false)
  (define-fun |required(ezcsp__leq(nWeight(1),ezcsp__mn(ezcsp__pl(17,89),17)))| () Bool
    false)
  (define-fun |467| () Bool
    false)
  (define-fun |leafPos(2,7)| () Bool
    false)
  (define-fun |required(ezcsp__leq(nWeight(6),ezcsp__mn(ezcsp__pl(59,61),59)))| () Bool
    false)
  (define-fun |required(ezcsp__eq(nWeight(1),90))| () Bool
    false)
  (define-fun |required(ezcsp__eq(nWeight(2),127))| () Bool
    false)
  (define-fun |required(ezcsp__eq(nWeight(6),120))| () Bool
    false)
  (define-fun |leafPos(2,1)| () Bool
    false)
  (define-fun |required(ezcsp__eq(nWeight(3),ezcsp__pl(nWeight(2),54)))| () Bool
    false)
  (define-fun |required(ezcsp__eq(nWeight(1),141))| () Bool
    false)
  (define-fun |leafPos(4,6)| () Bool
    false)
  (define-fun |leafPos(5,0)| () Bool
    false)
  (define-fun |required(ezcsp__leq(nWeight(1),ezcsp__mn(ezcsp__pl(45,53),45)))| () Bool
    false)
  (define-fun |required(ezcsp__gt(nWeight(2),ezcsp__mn(ezcsp__pl(82,89),82)))| () Bool
    false)
  (define-fun |posColor(2,blue)| () Bool
    false)
  (define-fun |required(ezcsp__eq(nWeight(7),ezcsp__pl(nWeight(6),82)))| () Bool
    false)
  (define-fun |leafPos(7,4)| () Bool
    false)
  (define-fun |required(ezcsp__eq(nWeight(7),98))| () Bool
    false)
  (define-fun |required(ezcsp__eq(nWeight(2),ezcsp__pl(nWeight(1),59)))| () Bool
    false)
  (define-fun |required(ezcsp__eq(nWeight(6),127))| () Bool
    false)
  (define-fun |required(ezcsp__leq(nWeight(1),ezcsp__mn(ezcsp__pl(81,20),20)))| () Bool
    false)
  (define-fun |468| () Bool
    false)
  (define-fun |426| () Bool
    false)
  (define-fun |required(ezcsp__eq(nWeight(6),ezcsp__pl(nWeight(5),45)))| () Bool
    false)
  (define-fun |posColor(2,green)| () Bool
    false)
  (define-fun |428| () Bool
    false)
  (define-fun |required(ezcsp__eq(nWeight(1),124))| () Bool
    false)
  (define-fun |required(ezcsp__eq(nWeight(3),ezcsp__pl(nWeight(2),36)))| () Bool
    false)
  (define-fun |leafPos(4,5)| () Bool
    false)
  (define-fun |required(ezcsp__eq(nWeight(3),101))| () Bool
    false)
  (define-fun |required(ezcsp__gt(nWeight(2),ezcsp__mn(ezcsp__pl(36,91),36)))| () Bool
    false)
  (define-fun |480| () Bool
    false)
  (define-fun |required(ezcsp__eq(nWeight(1),135))| () Bool
    false)
  (define-fun |required(ezcsp__eq(nWeight(4),ezcsp__pl(nWeight(3),59)))| () Bool
    false)
  (define-fun |required(ezcsp__gt(nWeight(1),ezcsp__mn(ezcsp__pl(81,20),20)))| () Bool
    false)
  (define-fun |leafPos(6,7)| () Bool
    false)
  (define-fun |459| () Bool
    false)
  (define-fun |required(ezcsp__gt(nWeight(4),ezcsp__mn(ezcsp__pl(50,54),50)))| () Bool
    true)
  (define-fun |required(ezcsp__eq(nWeight(5),104))| () Bool
    true)
  (define-fun |required(ezcsp__leq(nWeight(3),ezcsp__mn(ezcsp__pl(59,61),59)))| () Bool
    false)
  (define-fun |leafPos(6,2)| () Bool
    false)
  (define-fun |required(ezcsp__leq(nWeight(2),ezcsp__mn(ezcsp__pl(45,53),45)))| () Bool
    false)
  (define-fun |leafPos(4,1)| () Bool
    true)
  (define-fun |required(ezcsp__gt(nWeight(2),ezcsp__mn(ezcsp__pl(50,54),50)))| () Bool
    false)
  (define-fun |required(ezcsp__leq(nWeight(1),ezcsp__mn(ezcsp__pl(36,91),36)))| () Bool
    true)
  (define-fun |required(ezcsp__eq(nWeight(4),ezcsp__pl(nWeight(3),20)))| () Bool
    false)
  (define-fun |required(ezcsp__eq(nWeight(7),ezcsp__pl(nWeight(6),54)))| () Bool
    false)
  (define-fun |required(ezcsp__eq(nWeight(4),106))| () Bool
    false)
  (define-fun |required(ezcsp__leq(nWeight(3),ezcsp__mn(ezcsp__pl(50,54),50)))| () Bool
    false)
  (define-fun |required(ezcsp__gt(nWeight(6),ezcsp__mn(ezcsp__pl(45,53),45)))| () Bool
    false)
  (define-fun |455| () Bool
    false)
  (define-fun |leafPos(8,5)| () Bool
    false)
  (define-fun |required(ezcsp__eq(nWeight(3),ezcsp__pl(nWeight(2),17)))| () Bool
    false)
  (define-fun |required(ezcsp__eq(nWeight(7),106))| () Bool
    false)
  (define-fun |required(ezcsp__eq(nWeight(2),98))| () Bool
    false)
  (define-fun |required(ezcsp__eq(nWeight(1),81))| () Bool
    false)
  (define-fun |required(ezcsp__eq(nWeight(1),86))| () Bool
    false)
  (define-fun |required(ezcsp__eq(nWeight(6),101))| () Bool
    false)
  (define-fun |444| () Bool
    false)
  (define-fun |required(ezcsp__eq(nWeight(5),ezcsp__pl(nWeight(4),45)))| () Bool
    false)
  (define-fun |required(ezcsp__eq(nWeight(1),108))| () Bool
    false)
  (define-fun |437| () Bool
    false)
  (define-fun |433| () Bool
    false)
  (define-fun |required(ezcsp__leq(nWeight(3),ezcsp__mn(ezcsp__pl(17,89),17)))| () Bool
    false)
  (define-fun |leafPos(2,5)| () Bool
    false)
  (define-fun |required(ezcsp__leq(nWeight(5),ezcsp__mn(ezcsp__pl(17,89),17)))| () Bool
    false)
  (define-fun |required(ezcsp__eq(nWeight(6),98))| () Bool
    false)
  (define-fun |posColor(4,green)| () Bool
    true)
  (define-fun |required(ezcsp__gt(nWeight(5),ezcsp__mn(ezcsp__pl(81,20),20)))| () Bool
    false)
  (define-fun |leafPos(4,7)| () Bool
    false)
  (define-fun |required(ezcsp__gt(nWeight(1),ezcsp__mn(ezcsp__pl(36,91),36)))| () Bool
    false)
  (define-fun |leafPos(7,0)| () Bool
    false)
  (define-fun |required(ezcsp__gt(nWeight(3),ezcsp__mn(ezcsp__pl(50,54),50)))| () Bool
    false)
  (define-fun |required(ezcsp__leq(nWeight(2),ezcsp__mn(ezcsp__pl(82,89),82)))| () Bool
    true)
  (define-fun |required(ezcsp__eq(nWeight(4),98))| () Bool
    true)
  (define-fun |422| () Bool
    false)
  (define-fun |required(ezcsp__eq(nWeight(1),100))| () Bool
    false)
  (define-fun |required(ezcsp__gt(nWeight(4),ezcsp__mn(ezcsp__pl(81,20),20)))| () Bool
    false)
  (define-fun |required(ezcsp__leq(nWeight(4),ezcsp__mn(ezcsp__pl(59,61),59)))| () Bool
    false)
  (define-fun |required(ezcsp__eq(nWeight(5),ezcsp__pl(nWeight(4),59)))| () Bool
    false)
  (define-fun |required(ezcsp__leq(nWeight(6),ezcsp__mn(ezcsp__pl(45,53),45)))| () Bool
    false)
  (define-fun |required(ezcsp__gt(nWeight(4),ezcsp__mn(ezcsp__pl(82,89),82)))| () Bool
    false)
  (define-fun |required(ezcsp__eq(nWeight(1),171))| () Bool
    false)
  (define-fun |required(ezcsp__eq(nWeight(1),56))| () Bool
    false)
  (define-fun |required(ezcsp__eq(nWeight(5),ezcsp__pl(nWeight(4),54)))| () Bool
    false)
  (define-fun |451| () Bool
    false)
  (define-fun |required(ezcsp__eq(nWeight(1),101))| () Bool
    false)
  (define-fun |required(ezcsp__eq(nWeight(1),102))| () Bool
    false)
  (define-fun |leafPos(2,4)| () Bool
    false)
  (define-fun |posColor(6,red)| () Bool
    false)
  (define-fun |482| () Bool
    false)
  (define-fun |required(ezcsp__gt(nWeight(3),ezcsp__mn(ezcsp__pl(17,89),17)))| () Bool
    false)
  (define-fun |450| () Bool
    false)
  (define-fun |required(ezcsp__eq(nWeight(1),99))| () Bool
    false)
  (define-fun |441| () Bool
    false)
  (define-fun |required(ezcsp__eq(nWeight(4),ezcsp__pl(nWeight(3),50)))| () Bool
    false)
  (define-fun |479| () Bool
    false)
  (define-fun |430| () Bool
    false)
  (define-fun |required(ezcsp__eq(nWeight(1),98))| () Bool
    false)
  (define-fun |447| () Bool
    false)
  (define-fun |required(ezcsp__eq(nWeight(1),76))| () Bool
    false)
  (define-fun |required(ezcsp__leq(nWeight(1),ezcsp__mn(ezcsp__pl(82,89),82)))| () Bool
    false)
  (define-fun |required(ezcsp__eq(nWeight(2),120))| () Bool
    false)
  (define-fun |leafPos(5,1)| () Bool
    false)
  (define-fun |required(ezcsp__gt(nWeight(3),ezcsp__mn(ezcsp__pl(82,89),82)))| () Bool
    false)
  (define-fun |posColor(1,blue)| () Bool
    true)
  (define-fun |required(ezcsp__leq(nWeight(6),ezcsp__mn(ezcsp__pl(36,91),36)))| () Bool
    false)
  (define-fun |required(ezcsp__gt(nWeight(6),ezcsp__mn(ezcsp__pl(17,89),17)))| () Bool
    false)
  (define-fun |required(ezcsp__leq(nWeight(4),ezcsp__mn(ezcsp__pl(81,20),20)))| () Bool
    false)
  (define-fun |472| () Bool
    false)
  (define-fun |required(ezcsp__leq(nWeight(4),ezcsp__mn(ezcsp__pl(17,89),17)))| () Bool
    false)
  (define-fun |posColor(1,red)| () Bool
    false)
  (define-fun |leafPos(1,0)| () Bool
    false)
  (define-fun |required(ezcsp__eq(nWeight(1),65))| () Bool
    false)
  (define-fun |required(ezcsp__eq(nWeight(7),ezcsp__pl(nWeight(6),59)))| () Bool
    false)
  (define-fun |required(ezcsp__eq(nWeight(1),126))| () Bool
    false)
  (define-fun |454| () Bool
    false)
  (define-fun |440| () Bool
    false)
  (define-fun |leafPos(6,3)| () Bool
    false)
  (define-fun |leafPos(7,1)| () Bool
    false)
  (define-fun |required(ezcsp__gt(nWeight(5),ezcsp__mn(ezcsp__pl(59,61),59)))| () Bool
    false)
  (define-fun |leafPos(8,7)| () Bool
    true)
  (define-fun |required(ezcsp__eq(nWeight(3),127))| () Bool
    false)
  (define-fun |leafPos(6,5)| () Bool
    false)
  (define-fun |required(ezcsp__leq(nWeight(2),ezcsp__mn(ezcsp__pl(17,89),17)))| () Bool
    false)
  (define-fun |required(ezcsp__eq(nWeight(2),ezcsp__pl(nWeight(1),82)))| () Bool
    false)
  (define-fun |posColor(7,green)| () Bool
    true)
  (define-fun |required(ezcsp__leq(nWeight(2),ezcsp__mn(ezcsp__pl(81,20),20)))| () Bool
    false)
  (define-fun |required(ezcsp__eq(nWeight(5),142))| () Bool
    false)
  (define-fun |required(ezcsp__gt(nWeight(4),ezcsp__mn(ezcsp__pl(88,54),54)))| () Bool
    false)
  (define-fun |leafPos(1,1)| () Bool
    false)
  (define-fun |required(ezcsp__gt(nWeight(1),ezcsp__mn(ezcsp__pl(17,89),17)))| () Bool
    false)
  (define-fun |required(ezcsp__eq(nWeight(5),98))| () Bool
    false)
  (define-fun |required(ezcsp__eq(nWeight(1),53))| () Bool
    false)
  (define-fun |required(ezcsp__eq(nWeight(4),120))| () Bool
    false)
  (define-fun |required(ezcsp__eq(nWeight(3),ezcsp__pl(nWeight(2),45)))| () Bool
    false)
  (define-fun |required(ezcsp__eq(nWeight(1),147))| () Bool
    false)
  (define-fun |476| () Bool
    false)
  (define-fun |477| () Bool
    false)
  (define-fun |leafPos(3,6)| () Bool
    false)
  (define-fun |leafPos(3,5)| () Bool
    false)
  (define-fun |posColor(2,red)| () Bool
    true)
  (define-fun |438| () Bool
    false)
  (define-fun |leafPos(5,2)| () Bool
    false)
  (define-fun |leafPos(4,4)| () Bool
    false)
  (define-fun |required(ezcsp__eq(nWeight(2),ezcsp__pl(nWeight(1),36)))| () Bool
    true)
  (define-fun |required(ezcsp__eq(nWeight(2),ezcsp__pl(nWeight(1),50)))| () Bool
    false)
  (define-fun |required(ezcsp__eq(nWeight(7),ezcsp__pl(nWeight(6),36)))| () Bool
    false)
  (define-fun |leafPos(3,2)| () Bool
    false)
  (define-fun |required(ezcsp__leq(nWeight(5),ezcsp__mn(ezcsp__pl(59,61),59)))| () Bool
    false)
  (define-fun |posColor(7,blue)| () Bool
    false)
  (define-fun |leafPos(6,1)| () Bool
    false)
  (define-fun |required(ezcsp__gt(nWeight(5),ezcsp__mn(ezcsp__pl(88,54),54)))| () Bool
    true)
  (define-fun |leafPos(2,0)| () Bool
    false)
  (define-fun |required(ezcsp__eq(nWeight(1),118))| () Bool
    false)
  (define-fun |required(ezcsp__eq(nWeight(7),142))| () Bool
    false)
  (define-fun |required(ezcsp__eq(nWeight(1),37))| () Bool
    true)
  (define-fun |posColor(7,red)| () Bool
    false)
  (define-fun |required(ezcsp__eq(nWeight(7),127))| () Bool
    false)
  (define-fun |posColor(6,green)| () Bool
    true)
  (define-fun |required(ezcsp__eq(nWeight(5),ezcsp__pl(nWeight(4),36)))| () Bool
    false)
  (define-fun |required(ezcsp__eq(nWeight(1),62))| () Bool
    false)
  (define-fun |required(ezcsp__eq(nWeight(3),104))| () Bool
    false)
  (define-fun |required(ezcsp__eq(nWeight(3),106))| () Bool
    false)
  (define-fun |required(ezcsp__leq(nWeight(1),ezcsp__mn(ezcsp__pl(59,61),59)))| () Bool
    false)
  (define-fun |required(ezcsp__eq(nWeight(5),ezcsp__pl(nWeight(4),82)))| () Bool
    false)
  (define-fun |required(ezcsp__eq(nWeight(6),ezcsp__pl(nWeight(5),59)))| () Bool
    false)
  (define-fun |required(ezcsp__eq(nWeight(3),120))| () Bool
    false)
  (define-fun |required(ezcsp__eq(nWeight(7),ezcsp__pl(nWeight(6),17)))| () Bool
    false)
  (define-fun |435| () Bool
    true)
  (define-fun |required(ezcsp__gt(nWeight(1),ezcsp__mn(ezcsp__pl(50,54),50)))| () Bool
    false)
  (define-fun |452| () Bool
    false)
  (define-fun |481| () Bool
    false)
  (define-fun |required(ezcsp__leq(nWeight(5),ezcsp__mn(ezcsp__pl(82,89),82)))| () Bool
    false)
  (define-fun |leafPos(2,2)| () Bool
    false)
  (define-fun |required(ezcsp__eq(nWeight(5),106))| () Bool
    false)
  (define-fun |leafPos(3,0)| () Bool
    true)
  (define-fun |484| () Bool
    false)
  (define-fun |457| () Bool
    false)
  (define-fun |leafPos(8,2)| () Bool
    false)
  (define-fun |required(ezcsp__eq(nWeight(4),ezcsp__pl(nWeight(3),17)))| () Bool
    false)
  (define-fun |leafPos(7,6)| () Bool
    false)
  (define-fun |required(ezcsp__gt(nWeight(1),ezcsp__mn(ezcsp__pl(82,89),82)))| () Bool
    false)
  (define-fun |required(ezcsp__eq(nWeight(1),70))| () Bool
    false)
  (define-fun |required(ezcsp__eq(nWeight(1),138))| () Bool
    false)
  (define-fun |required(ezcsp__eq(nWeight(1),132))| () Bool
    false)
  (define-fun |required(ezcsp__leq(nWeight(6),ezcsp__mn(ezcsp__pl(17,89),17)))| () Bool
    false)
  (define-fun |required(ezcsp__gt(nWeight(3),ezcsp__mn(ezcsp__pl(81,20),20)))| () Bool
    false)
  (define-fun |leafPos(6,4)| () Bool
    false)
  (define-fun |required(ezcsp__eq(nWeight(1),95))| () Bool
    false)
  (define-fun |required(ezcsp__eq(nWeight(6),ezcsp__pl(nWeight(5),54)))| () Bool
    false)
  (define-fun |required(ezcsp__eq(nWeight(6),ezcsp__pl(nWeight(5),36)))| () Bool
    false)
  (define-fun |required(ezcsp__leq(nWeight(3),ezcsp__mn(ezcsp__pl(45,53),45)))| () Bool
    false)
  (define-fun |required(ezcsp__gt(nWeight(2),ezcsp__mn(ezcsp__pl(59,61),59)))| () Bool
    false)
  (define-fun |leafPos(1,2)| () Bool
    false)
  (define-fun |required(ezcsp__eq(nWeight(2),ezcsp__pl(nWeight(1),17)))| () Bool
    false)
  (define-fun |required(ezcsp__eq(nWeight(1),109))| () Bool
    false)
  (define-fun |nWeight(1)| () Int
    37)
  (define-fun |required(ezcsp__leq(nWeight(4),ezcsp__mn(ezcsp__pl(36,91),36)))| () Bool
    false)
  (define-fun |required(ezcsp__leq(nWeight(3),ezcsp__mn(ezcsp__pl(82,89),82)))| () Bool
    false)
  (define-fun |required(ezcsp__eq(nWeight(7),ezcsp__pl(nWeight(6),50)))| () Bool
    false)
  (define-fun |required(ezcsp__gt(nWeight(5),ezcsp__mn(ezcsp__pl(82,89),82)))| () Bool
    false)
  (define-fun |required(ezcsp__leq(nWeight(6),ezcsp__mn(ezcsp__pl(88,54),54)))| () Bool
    false)
  (define-fun |required(ezcsp__eq(nWeight(4),142))| () Bool
    false)
  (define-fun |required(ezcsp__gt(nWeight(4),ezcsp__mn(ezcsp__pl(36,91),36)))| () Bool
    false)
  (define-fun |required(ezcsp__eq(nWeight(1),120))| () Bool
    false)
  (define-fun |required(ezcsp__eq(nWeight(4),ezcsp__pl(nWeight(3),45)))| () Bool
    false)
  (define-fun |required(ezcsp__eq(nWeight(1),71))| () Bool
    false)
  (define-fun |442| () Bool
    false)
  (define-fun |required(ezcsp__gt(nWeight(6),ezcsp__mn(ezcsp__pl(36,91),36)))| () Bool
    false)
  (define-fun |469| () Bool
    false)
  (define-fun |required(ezcsp__gt(nWeight(4),ezcsp__mn(ezcsp__pl(17,89),17)))| () Bool
    false)
  (define-fun |required(ezcsp__eq(nWeight(5),ezcsp__pl(nWeight(4),20)))| () Bool
    false)
  (define-fun |required(ezcsp__eq(nWeight(1),79))| () Bool
    false)
  (define-fun |453| () Bool
    false)
  (define-fun |439| () Bool
    false)
  (define-fun |required(ezcsp__gt(nWeight(3),ezcsp__mn(ezcsp__pl(59,61),59)))| () Bool
    false)
  (define-fun |leafPos(1,3)| () Bool
    false)
  (define-fun |423| () Bool
    false)
  (define-fun |443| () Bool
    false)
  (define-fun |leafPos(3,4)| () Bool
    false)
  (define-fun |473| () Bool
    false)
  (define-fun |leafPos(8,3)| () Bool
    false)
  (define-fun |required(ezcsp__eq(nWeight(1),105))| () Bool
    false)
  (define-fun |required(ezcsp__eq(nWeight(6),106))| () Bool
    false)
  (define-fun |nWeight(7)| () Int
    120)
  (define-fun |424| () Bool
    false)
  (define-fun |required(ezcsp__leq(nWeight(2),ezcsp__mn(ezcsp__pl(50,54),50)))| () Bool
    false)
  (define-fun |required(ezcsp__eq(nWeight(2),171))| () Bool
    false)
  (define-fun |leafPos(5,3)| () Bool
    false)
  (define-fun |460| () Bool
    false)
  (define-fun |456| () Bool
    false)
  (define-fun |required(ezcsp__leq(nWeight(5),ezcsp__mn(ezcsp__pl(36,91),36)))| () Bool
    false)
  (define-fun |445| () Bool
    false)
  (define-fun |required(ezcsp__eq(nWeight(6),ezcsp__pl(nWeight(5),50)))| () Bool
    false)
  (define-fun |required(ezcsp__gt(nWeight(1),ezcsp__mn(ezcsp__pl(45,53),45)))| () Bool
    false)
  (define-fun |required(ezcsp__eq(nWeight(7),120))| () Bool
    true)
  (define-fun |required(ezcsp__leq(nWeight(2),ezcsp__mn(ezcsp__pl(88,54),54)))| () Bool
    false)
  (define-fun |required(ezcsp__eq(nWeight(3),98))| () Bool
    false)
  (define-fun |required(ezcsp__leq(nWeight(4),ezcsp__mn(ezcsp__pl(82,89),82)))| () Bool
    false)
  (define-fun |448| () Bool
    false)
  (define-fun |required(ezcsp__leq(nWeight(3),ezcsp__mn(ezcsp__pl(88,54),54)))| () Bool
    false)
  (define-fun |required(ezcsp__eq(nWeight(6),ezcsp__pl(nWeight(5),82)))| () Bool
    false)
  (define-fun |required(ezcsp__eq(nWeight(5),101))| () Bool
    false)
  (define-fun |leafPos(5,4)| () Bool
    false)
  (define-fun |leafPos(1,7)| () Bool
    false)
  (define-fun |leafPos(1,4)| () Bool
    true)
  (define-fun |required(ezcsp__eq(nWeight(1),140))| () Bool
    false)
  (define-fun |required(ezcsp__leq(nWeight(5),ezcsp__mn(ezcsp__pl(50,54),50)))| () Bool
    false)
  (define-fun |required(ezcsp__eq(nWeight(4),ezcsp__pl(nWeight(3),82)))| () Bool
    false)
  (define-fun |required(ezcsp__eq(nWeight(4),ezcsp__pl(nWeight(3),54)))| () Bool
    false)
  (define-fun |483| () Bool
    false)
  (define-fun |required(ezcsp__gt(nWeight(2),ezcsp__mn(ezcsp__pl(45,53),45)))| () Bool
    false)
  (define-fun |required(ezcsp__eq(nWeight(3),ezcsp__pl(nWeight(2),82)))| () Bool
    true)
  (define-fun |474| () Bool
    false)
  (define-fun |required(ezcsp__eq(nWeight(1),106))| () Bool
    false)
  (define-fun |471| () Bool
    false)
  (define-fun |421| () Bool
    false)
  (define-fun |required(ezcsp__eq(nWeight(1),142))| () Bool
    false)
  (define-fun |466| () Bool
    false)
  (define-fun |required(ezcsp__eq(nWeight(2),ezcsp__pl(nWeight(1),45)))| () Bool
    false)
  (define-fun |436| () Bool
    false)
  (define-fun |required(ezcsp__eq(nWeight(1),34))| () Bool
    false)
  (define-fun |leafPos(6,0)| () Bool
    false)
  (define-fun |leafPos(7,2)| () Bool
    true)
  (define-fun |required(ezcsp__eq(nWeight(4),101))| () Bool
    false)
  (define-fun |required(ezcsp__gt(nWeight(1),ezcsp__mn(ezcsp__pl(88,54),54)))| () Bool
    false)
  (define-fun |required(ezcsp__leq(nWeight(4),ezcsp__mn(ezcsp__pl(88,54),54)))| () Bool
    false)
  (define-fun |required(ezcsp__gt(nWeight(4),ezcsp__mn(ezcsp__pl(59,61),59)))| () Bool
    false)
  (define-fun |posColor(3,green)| () Bool
    false)
  (define-fun |475| () Bool
    false)
  (define-fun |required(ezcsp__eq(nWeight(7),ezcsp__pl(nWeight(6),20)))| () Bool
    false)
  (define-fun |required(ezcsp__leq(nWeight(6),ezcsp__mn(ezcsp__pl(81,20),20)))| () Bool
    false)
  (define-fun |required(ezcsp__leq(nWeight(6),ezcsp__mn(ezcsp__pl(50,54),50)))| () Bool
    false)
  (define-fun |449| () Bool
    false)
  (define-fun |465| () Bool
    false)
  (define-fun |leafPos(8,0)| () Bool
    false)
  (define-fun |required(ezcsp__eq(nWeight(5),171))| () Bool
    false)
  (define-fun |required(ezcsp__leq(nWeight(2),ezcsp__mn(ezcsp__pl(36,91),36)))| () Bool
    false)
  (define-fun |posColor(5,green)| () Bool
    true)
  (define-fun |required(ezcsp__eq(nWeight(7),101))| () Bool
    false)
  (define-fun |required(ezcsp__eq(nWeight(5),127))| () Bool
    false)
  (define-fun |425| () Bool
    false)
  (define-fun |required(ezcsp__eq(nWeight(2),106))| () Bool
    false)
  (define-fun |required(ezcsp__eq(nWeight(1),104))| () Bool
    false)
  (define-fun |required(ezcsp__eq(nWeight(4),171))| () Bool
    false)
  (define-fun |required(ezcsp__eq(nWeight(2),ezcsp__pl(nWeight(1),20)))| () Bool
    false)
  (define-fun |required(ezcsp__gt(nWeight(2),ezcsp__mn(ezcsp__pl(81,20),20)))| () Bool
    false)
  (define-fun |required(ezcsp__gt(nWeight(5),ezcsp__mn(ezcsp__pl(17,89),17)))| () Bool
    false)
  (define-fun |required(ezcsp__gt(nWeight(6),ezcsp__mn(ezcsp__pl(82,89),82)))| () Bool
    false)
  (define-fun |required(ezcsp__gt(nWeight(5),ezcsp__mn(ezcsp__pl(50,54),50)))| () Bool
    false)
  (define-fun |leafPos(8,4)| () Bool
    false)
  (define-fun |required(ezcsp__eq(nWeight(3),ezcsp__pl(nWeight(2),50)))| () Bool
    false)
  (define-fun |required(ezcsp__eq(nWeight(6),171))| () Bool
    false)
  (define-fun |required(ezcsp__eq(nWeight(1),163))| () Bool
    false)
  (define-fun |required(ezcsp__eq(nWeight(1),72))| () Bool
    false)
  (define-fun |leafPos(3,3)| () Bool
    false)
  (define-fun |required(ezcsp__eq(nWeight(1),164))| () Bool
    false)
  (define-fun |posColor(4,red)| () Bool
    false)
  (define-fun |leafPos(5,6)| () Bool
    false)
  (define-fun |required(ezcsp__leq(nWeight(5),ezcsp__mn(ezcsp__pl(45,53),45)))| () Bool
    false)
  (define-fun |required(ezcsp__eq(nWeight(1),67))| () Bool
    false)
  (define-fun |required(ezcsp__eq(nWeight(3),142))| () Bool
    false)
  (define-fun |429| () Bool
    false)
  (define-fun |required(ezcsp__leq(nWeight(1),ezcsp__mn(ezcsp__pl(88,54),54)))| () Bool
    false)
  (define-fun |nWeight(4)| () Int
    98)
  (define-fun |required(ezcsp__eq(nWeight(4),127))| () Bool
    false)
  (define-fun |required(ezcsp__leq(nWeight(3),ezcsp__mn(ezcsp__pl(81,20),20)))| () Bool
    false)
  (define-fun |463| () Bool
    false)
  (define-fun |required(ezcsp__leq(nWeight(4),ezcsp__mn(ezcsp__pl(50,54),50)))| () Bool
    false)
  (define-fun |420| () Bool
    true)
  (define-fun |label_order(nWeight(1),1)| () Bool
    true)
  (define-fun |label_order(nWeight(2),1)| () Bool
    true)
  (define-fun |label_order(nWeight(3),1)| () Bool
    true)
  (define-fun |label_order(nWeight(4),1)| () Bool
    true)
  (define-fun |label_order(nWeight(5),1)| () Bool
    true)
  (define-fun |label_order(nWeight(6),1)| () Bool
    true)
  (define-fun |label_order(nWeight(7),1)| () Bool
    true)
  (define-fun |required(ezcsp__sum(list(nWeight,1),ezcsp__leq,729))| () Bool
    true)
  (define-fun |172| () Bool
    true)
  (define-fun |171| () Bool
    true)
  (define-fun |167| () Bool
    true)
  (define-fun |166| () Bool
    true)
  (define-fun |162| () Bool
    true)
  (define-fun |161| () Bool
    true)
  (define-fun |157| () Bool
    true)
  (define-fun |156| () Bool
    true)
  (define-fun |152| () Bool
    true)
  (define-fun |151| () Bool
    true)
  (define-fun |147| () Bool
    true)
  (define-fun |146| () Bool
    true)
  (define-fun |139| () Bool
    true)
  (define-fun |138| () Bool
    true)
  (define-fun |129| () Bool
    true)
  (define-fun |128| () Bool
    true)
  (define-fun |119| () Bool
    true)
  (define-fun |118| () Bool
    true)
  (define-fun |109| () Bool
    true)
  (define-fun |108| () Bool
    true)
  (define-fun |99| () Bool
    true)
  (define-fun |98| () Bool
    true)
  (define-fun |89| () Bool
    true)
  (define-fun |88| () Bool
    true)
  (define-fun |79| () Bool
    true)
  (define-fun |78| () Bool
    true)
  (define-fun |69| () Bool
    false)
  (define-fun |68| () Bool
    true)
  (define-fun |67| () Bool
    true)
  (define-fun |location(7)| () Bool
    true)
  (define-fun |location(6)| () Bool
    true)
  (define-fun |location(5)| () Bool
    true)
  (define-fun |location(4)| () Bool
    true)
  (define-fun |location(3)| () Bool
    true)
  (define-fun |location(2)| () Bool
    true)
  (define-fun |location(1)| () Bool
    true)
  (define-fun |leafCost(4,20)| () Bool
    true)
  (define-fun |leafCost(6,54)| () Bool
    true)
  (define-fun |leafCost(1,45)| () Bool
    true)
  (define-fun |leafCost(2,82)| () Bool
    true)
  (define-fun |leafCost(3,17)| () Bool
    true)
  (define-fun |leafCost(5,50)| () Bool
    true)
  (define-fun |leafCost(7,36)| () Bool
    true)
  (define-fun |leafCost(8,59)| () Bool
    true)
  (define-fun |cspvar(nWeight(1),0,729)| () Bool
    true)
  (define-fun |cspvar(nWeight(2),0,729)| () Bool
    true)
  (define-fun |cspvar(nWeight(3),0,729)| () Bool
    true)
  (define-fun |cspvar(nWeight(4),0,729)| () Bool
    true)
  (define-fun |cspvar(nWeight(5),0,729)| () Bool
    true)
  (define-fun |cspvar(nWeight(6),0,729)| () Bool
    true)
  (define-fun |cspvar(nWeight(7),0,729)| () Bool
    true)
  (define-fun |coloredPos(7)| () Bool
    true)
  (define-fun |coloredPos(6)| () Bool
    true)
  (define-fun |coloredPos(5)| () Bool
    true)
  (define-fun |coloredPos(4)| () Bool
    true)
  (define-fun |coloredPos(3)| () Bool
    true)
  (define-fun |coloredPos(2)| () Bool
    true)
  (define-fun |coloredPos(1)| () Bool
    true)
  (define-fun |leaf(1)| () Bool
    true)
  (define-fun |leaf(2)| () Bool
    true)
  (define-fun |leaf(3)| () Bool
    true)
  (define-fun |leaf(4)| () Bool
    true)
  (define-fun |leaf(5)| () Bool
    true)
  (define-fun |leaf(6)| () Bool
    true)
  (define-fun |leaf(7)| () Bool
    true)
  (define-fun |leaf(8)| () Bool
    true)
  (define-fun |max_total_weight(729)| () Bool
    true)
  (define-fun |num(8)| () Bool
    true)
  (define-fun |innerNode(7)| () Bool
    true)
  (define-fun |innerNode(6)| () Bool
    true)
  (define-fun |innerNode(5)| () Bool
    true)
  (define-fun |innerNode(4)| () Bool
    true)
  (define-fun |innerNode(3)| () Bool
    true)
  (define-fun |innerNode(2)| () Bool
    true)
  (define-fun |innerNode(1)| () Bool
    true)
  (define-fun |leafWeightCardinality(8,59,61)| () Bool
    true)
  (define-fun |leafWeightCardinality(7,36,91)| () Bool
    true)
  (define-fun |leafWeightCardinality(6,88,54)| () Bool
    true)
  (define-fun |leafWeightCardinality(5,50,54)| () Bool
    true)
  (define-fun |leafWeightCardinality(4,81,20)| () Bool
    true)
  (define-fun |leafWeightCardinality(3,17,89)| () Bool
    true)
  (define-fun |leafWeightCardinality(2,82,89)| () Bool
    true)
  (define-fun |leafWeightCardinality(1,45,53)| () Bool
    true)
  (define-fun |location(0)| () Bool
    true)
  (define-fun |color(green)| () Bool
    true)
  (define-fun |color(blue)| () Bool
    true)
  (define-fun |color(red)| () Bool
    true)
)
